TERM = { '.', s2, s3, s4, s5, s6, s7, s8};
null = '.';
s = 10;
n = 2;
min = 10;
N0 = 0;
ZEROARYOP = {};
zeroout = [];
zerogas = [];
zerosz =  [];
zerolb =  [];
zeroub =  [];
N1 = 0;
UNARYOP = {};
unin =  [];
unout = [];
ungas = [];
unsz =  [];
unlb =  [];
unub =  [];
N2 = 1;
BINARYOP = { SHL_0 };
binin1 = [s5 ];
binin2 = [s6 ];
binout = [s2 ];
bincomm = [false ];
bingas = [3 ];
binsz = [1 ];
binlb = [ 1 ];
binub = [ 10 ];
NA = 0;
ASSOCIATIVEADDOP = {};
naddin =  [];
addin =  [||];
addout = [];
addcomm = [];
addgas = [];
addsz =  [];
addlb =  [];
addub =  [];
NPUSH = 6;
PUSHOP = { PUSH_0, PUSH_1, PUSH_2, PUSH_3, PUSH_4, PUSH_5 };
pushout = [ s3, s4, s5, s6, s7, s8 ];
pushgas = [ 3, 3, 3, 3, 3, 3 ];
pushsz = [ 2, 2, 2, 5, 2, 2 ];
pushlb = [ 1, 1, 1, 1, 1, 1 ];
pushub = [ 10, 10, 10, 10, 10, 10 ];
NSTORE = 2;
STOROP = { MSTORE_0, MSTORE_1 };
storin1 = [s3, s7 ];
storin2 = [s2, s8 ];
storgas = [ 3, 3 ];
storsz = [ 1, 1 ];
storlb = [ 1, 1 ];
storub = [ 10, 10 ];
DUP_ENUM = { DUP1};
SWAP_ENUM = { SWAP1};
startstack = [ null, null ];
endstack = [ s3, s4 ];
m_dep_n = 1;
memory_dependences = [|MSTORE_0, MSTORE_1|];
s_dep_n = 0;
store_dependences = [| |];
lib = false;
nlib = 0;
lib_elem = [| |];
lib_dis = [];
